p edge 220 1320
e 1 25
e 1 44
e 1 84
e 1 139
e 1 165
e 1 171
e 2 64
e 2 72
e 2 145
e 2 155
e 2 193
e 2 205
e 3 43
e 3 94
e 3 123
e 3 151
e 3 189
e 3 209
e 4 39
e 4 68
e 4 82
e 4 86
e 4 123
e 4 196
e 5 2
e 5 33
e 5 49
e 5 70
e 5 91
e 5 183
e 6 49
e 6 102
e 6 108
e 6 141
e 6 164
e 6 173
e 7 51
e 7 57
e 7 59
e 7 133
e 7 182
e 7 188
e 8 62
e 8 110
e 8 110
e 8 125
e 8 138
e 8 187
e 9 72
e 9 84
e 9 111
e 9 136
e 9 179
e 9 209
e 10 25
e 10 43
e 10 81
e 10 89
e 10 147
e 10 147
e 11 73
e 11 83
e 11 103
e 11 109
e 11 170
e 11 206
e 12 8
e 12 131
e 12 152
e 12 164
e 12 191
e 12 214
e 13 26
e 13 35
e 13 48
e 13 58
e 13 65
e 13 98
e 14 85
e 14 109
e 14 134
e 14 145
e 14 175
e 14 203
e 15 3
e 15 26
e 15 38
e 15 124
e 15 161
e 15 166
e 16 42
e 16 61
e 16 71
e 16 130
e 16 203
e 16 204
e 17 12
e 17 78
e 17 101
e 17 114
e 17 124
e 17 216
e 18 84
e 18 98
e 18 140
e 18 173
e 18 197
e 18 205
e 19 73
e 19 100
e 19 118
e 19 134
e 19 191
e 19 195
e 20 36
e 20 120
e 20 133
e 20 151
e 20 160
e 20 192
e 21 105
e 21 158
e 21 161
e 21 162
e 21 180
e 21 210
e 22 1
e 22 31
e 22 62
e 22 64
e 22 75
e 22 166
e 23 15
e 23 73
e 23 93
e 23 103
e 23 105
e 23 135
e 24 22
e 24 74
e 24 95
e 24 119
e 24 119
e 24 217
e 25 37
e 25 40
e 25 109
e 25 123
e 25 126
e 25 139
e 26 8
e 26 58
e 26 61
e 26 100
e 26 102
e 26 190
e 27 36
e 27 76
e 27 94
e 27 192
e 27 203
e 27 204
e 28 87
e 28 94
e 28 99
e 28 150
e 28 154
e 28 185
e 29 5
e 29 10
e 29 160
e 29 161
e 29 191
e 29 216
e 30 27
e 30 57
e 30 84
e 30 129
e 30 154
e 30 210
e 31 104
e 31 142
e 31 142
e 31 179
e 31 181
e 31 215
e 32 43
e 32 65
e 32 129
e 32 136
e 32 142
e 32 150
e 33 58
e 33 80
e 33 86
e 33 111
e 33 183
e 33 204
e 34 9
e 34 19
e 34 49
e 34 133
e 34 176
e 34 215
e 35 95
e 35 152
e 35 172
e 35 182
e 35 186
e 35 210
e 36 46
e 36 60
e 36 175
e 36 176
e 36 191
e 36 202
e 37 6
e 37 12
e 37 112
e 37 116
e 37 177
e 37 197
e 38 4
e 38 54
e 38 85
e 38 88
e 38 142
e 38 202
e 39 47
e 39 92
e 39 128
e 39 133
e 39 180
e 39 185
e 40 7
e 40 15
e 40 29
e 40 83
e 40 175
e 40 193
e 41 15
e 41 28
e 41 97
e 41 100
e 41 132
e 41 159
e 42 15
e 42 19
e 42 45
e 42 104
e 42 190
e 42 198
e 43 3
e 43 12
e 43 23
e 43 58
e 43 66
e 43 178
e 44 8
e 44 37
e 44 57
e 44 76
e 44 77
e 44 213
e 45 43
e 45 67
e 45 124
e 45 148
e 45 183
e 45 188
e 46 98
e 46 100
e 46 136
e 46 144
e 46 154
e 46 202
e 47 11
e 47 45
e 47 54
e 47 59
e 47 73
e 47 126
e 48 29
e 48 55
e 48 68
e 48 103
e 48 132
e 48 153
e 49 2
e 49 34
e 49 75
e 49 168
e 49 171
e 49 211
e 50 26
e 50 29
e 50 36
e 50 60
e 50 62
e 50 204
e 51 35
e 51 83
e 51 115
e 51 162
e 51 217
e 51 218
e 52 28
e 52 82
e 52 127
e 52 140
e 52 143
e 52 216
e 53 40
e 53 75
e 53 99
e 53 170
e 53 199
e 53 207
e 54 42
e 54 92
e 54 127
e 54 160
e 54 196
e 54 209
e 55 44
e 55 119
e 55 142
e 55 149
e 55 190
e 55 197
e 56 17
e 56 24
e 56 39
e 56 72
e 56 102
e 56 201
e 57 63
e 57 73
e 57 94
e 57 101
e 57 157
e 57 208
e 58 2
e 58 2
e 58 90
e 58 141
e 58 184
e 58 217
e 59 1
e 59 22
e 59 22
e 59 36
e 59 97
e 59 187
e 60 48
e 60 66
e 60 124
e 60 141
e 60 175
e 60 188
e 61 9
e 61 66
e 61 68
e 61 82
e 61 93
e 61 176
e 62 32
e 62 71
e 62 75
e 62 86
e 62 105
e 62 108
e 63 22
e 63 42
e 63 80
e 63 114
e 63 121
e 63 201
e 64 18
e 64 47
e 64 54
e 64 120
e 64 131
e 64 168
e 65 17
e 65 50
e 65 85
e 65 85
e 65 141
e 65 172
e 66 11
e 66 15
e 66 17
e 66 138
e 66 157
e 66 204
e 67 6
e 67 11
e 67 15
e 67 92
e 67 137
e 67 145
e 68 10
e 68 43
e 68 81
e 68 98
e 68 202
e 68 206
e 69 118
e 69 122
e 69 128
e 69 139
e 69 167
e 69 195
e 70 3
e 70 87
e 70 149
e 70 159
e 70 170
e 70 214
e 71 1
e 71 13
e 71 33
e 71 42
e 71 52
e 71 113
e 72 13
e 72 15
e 72 29
e 72 117
e 72 118
e 72 202
e 73 34
e 73 57
e 73 94
e 73 138
e 73 152
e 73 193
e 74 104
e 74 116
e 74 131
e 74 155
e 74 173
e 74 196
e 75 12
e 75 17
e 75 72
e 75 82
e 75 134
e 75 189
e 76 40
e 76 71
e 76 73
e 76 115
e 76 168
e 76 181
e 77 29
e 77 41
e 77 57
e 77 117
e 77 146
e 77 152
e 78 3
e 78 30
e 78 57
e 78 70
e 78 156
e 78 187
e 79 51
e 79 78
e 79 86
e 79 112
e 79 126
e 79 152
e 80 113
e 80 142
e 80 183
e 80 208
e 80 215
e 80 217
e 81 8
e 81 39
e 81 42
e 81 114
e 81 210
e 81 213
e 82 4
e 82 21
e 82 104
e 82 121
e 82 144
e 82 184
e 83 7
e 83 24
e 83 24
e 83 36
e 83 149
e 83 189
e 84 14
e 84 55
e 84 80
e 84 104
e 84 156
e 84 190
e 85 30
e 85 76
e 85 87
e 85 94
e 85 100
e 85 211
e 86 7
e 86 137
e 86 144
e 86 148
e 86 184
e 86 188
e 87 73
e 87 99
e 87 110
e 87 118
e 87 120
e 87 123
e 88 13
e 88 75
e 88 125
e 88 195
e 88 200
e 88 202
e 89 4
e 89 6
e 89 64
e 89 92
e 89 123
e 89 200
e 90 29
e 90 83
e 90 118
e 90 134
e 90 201
e 90 213
e 91 7
e 91 60
e 91 82
e 91 112
e 91 149
e 91 167
e 92 33
e 92 118
e 92 158
e 92 173
e 92 201
e 92 202
e 93 7
e 93 28
e 93 37
e 93 96
e 93 105
e 93 218
e 94 18
e 94 72
e 94 121
e 94 154
e 94 166
e 94 199
e 95 75
e 95 81
e 95 101
e 95 138
e 95 145
e 95 148
e 96 95
e 96 100
e 96 117
e 96 124
e 96 163
e 96 187
e 97 38
e 97 75
e 97 182
e 97 191
e 97 191
e 97 197
e 98 28
e 98 51
e 98 87
e 98 163
e 98 183
e 98 212
e 99 28
e 99 58
e 99 131
e 99 150
e 99 207
e 99 212
e 100 59
e 100 126
e 100 128
e 100 181
e 100 186
e 100 203
e 101 37
e 101 58
e 101 69
e 101 82
e 101 202
e 101 209
e 102 4
e 102 25
e 102 56
e 102 89
e 102 130
e 102 193
e 103 26
e 103 56
e 103 87
e 103 108
e 103 126
e 103 217
e 104 8
e 104 29
e 104 30
e 104 71
e 104 173
e 104 191
e 105 20
e 105 21
e 105 28
e 105 29
e 105 48
e 105 101
e 106 5
e 106 8
e 106 15
e 106 66
e 106 147
e 106 200
e 107 41
e 107 65
e 107 121
e 107 137
e 107 193
e 107 199
e 108 13
e 108 33
e 108 43
e 108 127
e 108 134
e 108 178
e 109 122
e 109 141
e 109 147
e 109 168
e 109 181
e 109 186
e 110 32
e 110 56
e 110 61
e 110 93
e 110 154
e 110 214
e 111 61
e 111 82
e 111 84
e 111 165
e 111 167
e 111 197
e 112 1
e 112 2
e 112 42
e 112 98
e 112 102
e 112 173
e 113 46
e 113 73
e 113 74
e 113 140
e 113 195
e 113 217
e 114 14
e 114 31
e 114 56
e 114 96
e 114 190
e 114 211
e 115 50
e 115 75
e 115 136
e 115 155
e 115 175
e 115 217
e 116 10
e 116 45
e 116 120
e 116 159
e 116 161
e 116 167
e 117 13
e 117 20
e 117 79
e 117 141
e 117 160
e 117 216
e 118 5
e 118 13
e 118 108
e 118 111
e 118 141
e 118 158
e 119 9
e 119 115
e 119 146
e 119 192
e 119 204
e 119 204
e 120 35
e 120 114
e 120 145
e 120 173
e 120 205
e 120 217
e 121 38
e 121 68
e 121 139
e 121 169
e 121 176
e 121 203
e 122 20
e 122 39
e 122 81
e 122 83
e 122 102
e 122 116
e 123 4
e 123 43
e 123 54
e 123 61
e 123 120
e 123 191
e 124 14
e 124 84
e 124 93
e 124 203
e 124 210
e 124 215
e 125 32
e 125 67
e 125 71
e 125 91
e 125 146
e 125 156
e 126 3
e 126 62
e 126 89
e 126 175
e 126 175
e 126 219
e 127 77
e 127 122
e 127 123
e 127 157
e 127 175
e 127 203
e 128 10
e 128 18
e 128 57
e 128 92
e 128 174
e 128 188
e 129 7
e 129 37
e 129 73
e 129 85
e 129 100
e 129 109
e 130 103
e 130 136
e 130 150
e 130 161
e 130 177
e 130 210
e 131 3
e 131 38
e 131 61
e 131 114
e 131 181
e 131 190
e 132 4
e 132 5
e 132 40
e 132 54
e 132 161
e 132 170
e 133 49
e 133 106
e 133 115
e 133 138
e 133 191
e 133 214
e 134 51
e 134 58
e 134 62
e 134 72
e 134 115
e 134 220
e 135 36
e 135 70
e 135 146
e 135 168
e 135 195
e 135 208
e 136 10
e 136 14
e 136 77
e 136 116
e 136 148
e 136 186
e 137 53
e 137 148
e 137 156
e 137 183
e 137 186
e 137 189
e 138 7
e 138 46
e 138 49
e 138 122
e 138 125
e 138 201
e 139 20
e 139 141
e 139 184
e 139 187
e 139 192
e 139 195
e 140 17
e 140 18
e 140 27
e 140 77
e 140 159
e 140 165
e 141 16
e 141 25
e 141 38
e 141 48
e 141 123
e 141 205
e 142 6
e 142 23
e 142 57
e 142 63
e 142 111
e 142 173
e 143 17
e 143 29
e 143 110
e 143 120
e 143 150
e 143 179
e 144 37
e 144 133
e 144 139
e 144 156
e 144 169
e 144 197
e 145 22
e 145 104
e 145 135
e 145 169
e 145 195
e 145 208
e 146 46
e 146 51
e 146 123
e 146 132
e 146 157
e 146 204
e 147 14
e 147 21
e 147 22
e 147 34
e 147 106
e 147 122
e 148 60
e 148 69
e 148 70
e 148 132
e 148 149
e 148 197
e 149 24
e 149 39
e 149 65
e 149 110
e 149 119
e 149 188
e 150 1
e 150 33
e 150 55
e 150 126
e 150 202
e 150 205
e 151 29
e 151 47
e 151 74
e 151 155
e 151 190
e 151 198
e 152 11
e 152 23
e 152 74
e 152 107
e 152 128
e 152 191
e 153 48
e 153 69
e 153 110
e 153 157
e 153 158
e 153 220
e 154 15
e 154 86
e 154 117
e 154 132
e 154 170
e 154 171
e 155 39
e 155 56
e 155 99
e 155 132
e 155 165
e 155 195
e 156 15
e 156 26
e 156 69
e 156 72
e 156 83
e 156 151
e 157 52
e 157 98
e 157 125
e 157 139
e 157 205
e 157 211
e 158 7
e 158 99
e 158 144
e 158 154
e 158 181
e 158 185
e 159 50
e 159 91
e 159 130
e 159 133
e 159 155
e 159 201
e 160 44
e 160 78
e 160 122
e 160 143
e 160 176
e 160 192
e 161 19
e 161 49
e 161 54
e 161 168
e 161 175
e 161 177
e 162 22
e 162 64
e 162 69
e 162 115
e 162 202
e 162 220
e 163 8
e 163 98
e 163 116
e 163 158
e 163 172
e 163 186
e 164 55
e 164 85
e 164 104
e 164 136
e 164 152
e 164 216
e 165 3
e 165 25
e 165 45
e 165 199
e 165 203
e 165 218
e 166 71
e 166 90
e 166 106
e 166 109
e 166 130
e 166 217
e 167 19
e 167 45
e 167 60
e 167 119
e 167 168
e 167 212
e 168 45
e 168 69
e 168 77
e 168 82
e 168 91
e 168 208
e 169 28
e 169 36
e 169 41
e 169 45
e 169 142
e 169 192
e 170 76
e 170 143
e 170 172
e 170 177
e 170 187
e 170 210
e 171 132
e 171 145
e 171 170
e 171 174
e 171 203
e 171 216
e 172 79
e 172 98
e 172 130
e 172 194
e 172 203
e 172 219
e 173 70
e 173 90
e 173 142
e 173 168
e 173 216
e 173 218
e 174 12
e 174 66
e 174 88
e 174 91
e 174 103
e 174 115
e 175 45
e 175 67
e 175 83
e 175 116
e 175 140
e 175 179
e 176 12
e 176 83
e 176 90
e 176 96
e 176 169
e 176 201
e 177 98
e 177 115
e 177 126
e 177 157
e 177 179
e 177 199
e 178 38
e 178 67
e 178 84
e 178 117
e 178 187
e 178 215
e 179 39
e 179 162
e 179 163
e 179 163
e 179 166
e 179 217
e 180 31
e 180 60
e 180 79
e 180 160
e 180 162
e 180 209
e 181 28
e 181 40
e 181 52
e 181 66
e 181 75
e 181 77
e 182 23
e 182 69
e 182 79
e 182 89
e 182 155
e 182 216
e 183 35
e 183 58
e 183 111
e 183 115
e 183 153
e 183 167
e 184 4
e 184 70
e 184 73
e 184 152
e 184 156
e 184 176
e 185 15
e 185 29
e 185 73
e 185 111
e 185 113
e 185 124
e 186 48
e 186 102
e 186 109
e 186 112
e 186 150
e 186 195
e 187 75
e 187 123
e 187 149
e 187 178
e 187 199
e 187 212
e 188 17
e 188 23
e 188 24
e 188 110
e 188 149
e 188 195
e 189 17
e 189 76
e 189 82
e 189 132
e 189 174
e 189 208
e 190 4
e 190 27
e 190 71
e 190 136
e 190 177
e 190 219
e 191 20
e 191 99
e 191 141
e 191 178
e 191 184
e 191 192
e 192 22
e 192 60
e 192 80
e 192 87
e 192 131
e 192 148
e 193 11
e 193 33
e 193 134
e 193 171
e 193 173
e 193 216
e 194 11
e 194 128
e 194 137
e 194 170
e 194 213
e 194 215
e 195 23
e 195 66
e 195 79
e 195 97
e 195 157
e 195 180
e 196 111
e 196 149
e 196 158
e 196 166
e 196 175
e 196 219
e 197 80
e 197 85
e 197 93
e 197 177
e 197 205
e 197 209
e 198 7
e 198 78
e 198 92
e 198 125
e 198 137
e 198 163
e 199 5
e 199 21
e 199 64
e 199 110
e 199 151
e 199 169
e 200 1
e 200 17
e 200 58
e 200 59
e 200 112
e 200 180
e 201 35
e 201 55
e 201 118
e 201 157
e 201 177
e 201 180
e 202 71
e 202 95
e 202 97
e 202 134
e 202 153
e 202 184
e 203 55
e 203 63
e 203 70
e 203 84
e 203 94
e 203 96
e 204 22
e 204 69
e 204 111
e 204 154
e 204 159
e 204 189
e 205 14
e 205 39
e 205 75
e 205 79
e 205 84
e 205 125
e 206 42
e 206 69
e 206 69
e 206 82
e 206 183
e 206 194
e 207 80
e 207 129
e 207 134
e 207 180
e 207 185
e 207 218
e 208 37
e 208 80
e 208 93
e 208 95
e 208 125
e 208 162
e 209 116
e 209 122
e 209 137
e 209 149
e 209 171
e 209 203
e 210 9
e 210 13
e 210 94
e 210 98
e 210 159
e 210 214
e 211 48
e 211 97
e 211 118
e 211 135
e 211 181
e 211 192
e 212 40
e 212 94
e 212 132
e 212 133
e 212 190
e 212 217
e 213 19
e 213 86
e 213 105
e 213 108
e 213 119
e 213 219
e 214 52
e 214 83
e 214 91
e 214 112
e 214 117
e 214 162
e 215 5
e 215 19
e 215 31
e 215 80
e 215 91
e 215 189
e 216 7
e 216 30
e 216 43
e 216 73
e 216 93
e 216 155
e 217 36
e 217 73
e 217 96
e 217 175
e 217 185
e 217 189
e 218 132
e 218 136
e 218 156
e 218 161
e 218 184
e 218 195
e 219 12
e 219 14
e 219 45
e 219 85
e 219 203
e 219 214
e 220 33
e 220 34
e 220 107
e 220 159
e 220 215
e 220 218
